Sun 20 May 09:02:58 CEST 2018
CPXPARAM_TimeLimit                               45
CPXPARAM_Threads                                 4
CPXPARAM_MIP_Strategy_CallbackReducedLP          0
Tried aggregator 3 times.
MIP Presolve eliminated 2660 rows and 2471 columns.
MIP Presolve modified 4392 coefficients.
Aggregator did 8394 substitutions.
Reduced MIP has 12630 rows, 10002 columns, and 28818 nonzeros.
Reduced MIP has 8838 binaries, 12 generals, 0 SOSs, and 1396 indicators.
Presolve time = 0.11 sec. (241.79 ticks)
Probing time = 0.24 sec. (82.40 ticks)
Tried aggregator 3 times.
Aggregator did 5716 substitutions.
Reduced MIP has 6914 rows, 4286 columns, and 17386 nonzeros.
Reduced MIP has 3122 binaries, 1164 generals, 0 SOSs, and 1396 indicators.
Presolve time = 0.04 sec. (35.29 ticks)
Probing time = 0.04 sec. (24.33 ticks)
Tried aggregator 1 time.
Reduced MIP has 6914 rows, 4286 columns, and 17386 nonzeros.
Reduced MIP has 3122 binaries, 1164 generals, 0 SOSs, and 1396 indicators.
Presolve time = 0.02 sec. (15.81 ticks)
Probing time = 0.01 sec. (4.88 ticks)
Clique table members: 77745.
MIP emphasis: balance optimality and feasibility.
MIP search method: dynamic search.
Parallel mode: deterministic, using up to 4 threads.
Root relaxation solution time = 0.04 sec. (40.04 ticks)

        Nodes                                         Cuts/
   Node  Left     Objective  IInf  Best Integer    Best Bound    ItCnt     Gap

      0     0        0.0000  2158                      0.0000      656         
*     0+    0                           23.0000        0.0000           100.00%
      0     0        0.0000  2094       23.0000 Cliques: 1828     1004  100.00%
*     0+    0                           17.0000        0.0000           100.00%
      0     0        0.0000  1727       17.0000 Cliques: 1828     1291  100.00%
      0     0        0.0000  1296       17.0000 Cliques: 1828     1584  100.00%
      0     0        0.0000  1229       17.0000 Cliques: 1828     1682  100.00%
      0     0        0.0000  1209       17.0000 Cliques: 1828     1703  100.00%
      0     0        0.0000  1206       17.0000     Cuts: 635     2026  100.00%
      0     0        0.0000   393       17.0000  Impl Bds: 29     2180  100.00%
      0     0        0.0000   604       17.0000    Cuts: 1590     2579  100.00%
      0     2        0.0000   493       17.0000        0.0000     2766  100.00%
Elapsed time = 16.12 sec. (13605.37 ticks, tree = 0.01 MB, solutions = 2)
*     1+    1                           15.0000        0.0000           100.00%
      9     9        0.0000   855       15.0000        0.0000     4328  100.00%
     31    30        0.0000   714       15.0000        0.0000     7384  100.00%
     79    75        0.0000   717       15.0000        0.0000    12235  100.00%
*   153+  111                           14.0000        0.0000           100.00%
    167   145        2.0000   689       14.0000        0.0000    14247  100.00%
*   208   168      integral     0       12.0000        0.0000    16971  100.00%
    234   170       12.0000   289       12.0000        0.0000    16520  100.00%
    300   188       11.0000   654       12.0000        0.0000    21059  100.00%
    464   258        8.0000   313       12.0000        0.0000    25014  100.00%
*   487+  216                           11.0000        0.0000           100.00%
    582   309        9.0000   884       11.0000        0.0000    27781  100.00%
    634   399        7.0000   767       11.0000        0.0000    33064  100.00%
    938   551       10.0000   669       11.0000        0.0000    50699  100.00%
Elapsed time = 20.13 sec. (16767.42 ticks, tree = 5.31 MB, solutions = 8)
   1286   679       10.0000   350       11.0000        0.9389    64843   91.46%
   1531   704        9.0000   285       11.0000        1.6154    81051   85.31%
   1716   772       10.0000   179       11.0000        1.6154   103376   85.31%
   1903   843    infeasible             11.0000        2.0000   121154   81.82%
   2034   883        3.8889   345       11.0000        2.0000   139747   81.82%
   2182   935        2.0000   373       11.0000        2.0000   160600   81.82%
   2299   949        cutoff             11.0000        2.0000   176359   81.82%
   2402   954        3.2530   343       11.0000        2.0000   195448   81.82%
   2497   971    infeasible             11.0000        2.0000   215947   81.82%
   2644   994       10.0000   297       11.0000        2.0000   238305   81.82%
Elapsed time = 31.98 sec. (26371.35 ticks, tree = 13.13 MB, solutions = 8)
   2788  1051        2.0000   468       11.0000        2.0000   256540   81.82%
   2943  1075    infeasible             11.0000        2.0000   280537   81.82%
   3110  1101       10.0000   233       11.0000        2.0000   298687   81.82%
   3253  1126    infeasible             11.0000        2.0000   314195   81.82%
   3396  1144        5.0000   333       11.0000        2.0000   334191   81.82%
   3635  1216        8.0000   353       11.0000        2.0000   359502   81.82%
   3711  1262        1.0000   536       11.0000        2.0000   375350   81.82%
   3793    58        1.0000   338       11.0000        2.0000   380430   81.82%
   3883   127        9.0000   205       11.0000        2.0000   389533   81.82%
   3946   175        1.0000   234       11.0000        2.0000   394403   81.82%
Elapsed time = 44.90 sec. (37278.61 ticks, tree = 1.01 MB, solutions = 8)

Clique cuts applied:  14292
Cover cuts applied:  32
Implied bound cuts applied:  76
Mixed integer rounding cuts applied:  16
Zero-half cuts applied:  53
Gomory fractional cuts applied:  21

Root node processing (before b&c):
  Real time             =   16.04 sec. (13545.27 ticks)
Parallel b&c, 4 threads:
  Real time             =   28.99 sec. (23922.73 ticks)
  Sync time (average)   =    2.16 sec.
  Wait time (average)   =    0.01 sec.
                          ------------
Total (root+branch&cut) =   45.04 sec. (37467.99 ticks)
   | W
 L |  0  1  2  3 
----------------
 0 |  8  8  8  5 
 1 |  8  8  8  5 
 2 |  2  2 10 10 
 3 |  2  2 10 10 
 4 |  4  4 10 10 
 5 | 11 11 11  3 
 6 | 11 11 11  7 
 7 |  9  9  6  7 
 8 |  9  9  6  . 
 9 |  9  9  1  1 
10 |  .  .  1  1 
11 |  .  .  .  . 
12 |  .  .  .  . 
13 |  .  .  .  . 
14 |  .  .  .  . 
15 |  .  .  .  . 
16 |  .  .  .  . 
17 |  .  .  .  . 
18 |  .  .  .  . 
19 |  .  .  .  . 
20 |  .  .  .  . 
21 |  .  .  .  . 
22 |  .  .  .  . 
23 |  .  .  .  . 
24 |  .  .  .  . 

Boxes' corners:       (w,l)
    Box  1 is at 
        top left     (2,9)
        bottom right (3,10)

    Box  2 is at 
        top left     (0,2)
        bottom right (1,3)

    Box  3 is at 
        top left     (3,5)
        bottom right (3,5)

    Box  4 is at 
        top left     (0,4)
        bottom right (1,4)

    Box  5 is at 
        top left     (3,0)
        bottom right (3,1)

    Box  6 is at 
        top left     (2,7)
        bottom right (2,8)

    Box  7 is at 
        top left     (3,6)
        bottom right (3,7)

    Box  8 is at 
        top left     (0,0)
        bottom right (2,1)

    Box  9 is at 
        top left     (0,7)
        bottom right (1,9)

    Box 10 is at 
        top left     (2,2)
        bottom right (3,4)

    Box 11 is at 
        top left     (0,5)
        bottom right (2,6)

    Roll length used: 11
In 160.08 seconds
